c Random generated cnf formula, satisfiable: false
p cnf 10 50
-6 3 7 0
-8 6 -5 0
6 -9 3 0
7 -2 -9 0
-1 7 9 0
-1 -9 -5 0
-8 5 3 0
-6 -3 -5 0
-9 2 10 0
2 -1 6 0
9 8 1 0
6 -1 -10 0
2 -8 -3 0
-3 4 -10 0
9 -8 3 0
-9 -4 -5 0
4 1 10 0
-9 -1 -8 0
4 -9 8 0
-10 4 -1 0
5 -9 -7 0
-4 -5 10 0
8 -1 -6 0
3 -9 10 0
1 -10 7 0
-8 10 7 0
9 2 -5 0
6 -2 10 0
3 -1 -2 0
5 6 8 0
-2 7 -8 0
-6 2 -5 0
8 5 -1 0
-1 -2 -7 0
-3 -9 10 0
-9 -1 -5 0
-10 -4 -7 0
-2 -7 -8 0
4 -2 8 0
-5 9 -1 0
-10 -8 6 0
6 -7 -10 0
3 6 9 0
-4 8 -10 0
3 2 -5 0
7 -8 3 0
3 9 5 0
-10 -1 3 0
5 9 6 0
-7 -8 9 0
